35 35
22
3 3 0 0
3 4 32 0
3 5 15 8
3 6 0 29
3 7 0 22
3 8 11 0
3 9 0 13
3 10 0 3
3 12 32 23
3 19 32 4
3 22 15 13
4 3 3 32
4 4 11 31
4 5 7 30
4 6 7 24
4 7 7 17
4 8 14 0
4 12 3 20
4 17 7 0
4 20 3 0
4 23 11 8
14 35 18 0
% time elapsed: 50.80 s
% time elapsed: 50.80 s
%%%mzn-stat: initTime=0.000388
%%%mzn-stat: solveTime=50.7029
%%%mzn-stat: solutions=89
%%%mzn-stat: variables=45
%%%mzn-stat: propagators=27
%%%mzn-stat: propagations=26263344
%%%mzn-stat: nodes=5779384
%%%mzn-stat: failures=2876370
%%%mzn-stat: restarts=2218
%%%mzn-stat: peakDepth=65
%%%mzn-stat-end
